p tw 100 1800
1 35
1 46
1 68
1 3
1 4
1 9
1 11
1 14
1 15
1 20
1 28
1 31
1 33
1 40
1 42
1 44
1 47
1 48
1 49
1 50
1 51
1 52
1 56
1 58
1 59
1 63
1 66
1 70
1 77
1 78
1 80
1 83
1 84
1 87
1 92
1 93
2 13
2 24
2 57
2 68
2 4
2 8
2 12
2 17
2 25
2 26
2 27
2 30
2 32
2 34
2 37
2 40
2 45
2 48
2 50
2 51
2 53
2 56
2 59
2 61
2 62
2 67
2 70
2 73
2 75
2 78
2 80
2 85
2 87
2 91
2 96
2 98
13 24
13 35
13 46
13 57
13 68
13 4
13 7
13 9
13 11
13 15
13 16
13 17
13 19
13 26
13 27
13 31
13 37
13 39
13 43
13 45
13 49
13 51
13 53
13 54
13 56
13 63
13 69
13 72
13 74
13 75
13 81
13 86
13 88
13 98
13 99
24 35
24 7
24 9
24 11
24 16
24 19
24 22
24 25
24 27
24 32
24 34
24 38
24 39
24 45
24 48
24 51
24 55
24 58
24 65
24 72
24 76
24 80
24 82
24 83
24 84
24 85
24 86
24 87
24 91
24 92
24 93
24 95
24 96
24 98
35 46
35 4
35 9
35 10
35 15
35 23
35 27
35 28
35 29
35 31
35 34
35 36
35 37
35 39
35 43
35 47
35 48
35 50
35 51
35 54
35 58
35 64
35 65
35 66
35 67
35 71
35 74
35 75
35 82
35 84
35 91
35 92
35 95
46 79
46 90
46 4
46 7
46 10
46 11
46 14
46 15
46 20
46 29
46 33
46 34
46 37
46 40
46 41
46 44
46 45
46 49
46 53
46 56
46 61
46 65
46 70
46 71
46 73
46 74
46 81
46 82
46 84
46 86
46 92
46 97
46 98
57 79
57 3
57 4
57 8
57 9
57 12
57 25
57 26
57 27
57 28
57 30
57 33
57 36
57 43
57 45
57 49
57 50
57 52
57 54
57 60
57 62
57 63
57 70
57 71
57 72
57 74
57 81
57 83
57 85
57 86
57 87
57 89
57 95
57 97
68 79
68 4
68 8
68 11
68 15
68 17
68 18
68 19
68 21
68 22
68 23
68 31
68 32
68 33
68 39
68 41
68 42
68 45
68 49
68 51
68 54
68 58
68 59
68 62
68 66
68 67
68 70
68 78
68 80
68 81
68 96
68 99
68 100
79 4
79 6
79 8
79 9
79 11
79 15
79 16
79 18
79 20
79 22
79 23
79 25
79 29
79 30
79 34
79 38
79 42
79 44
79 45
79 49
79 55
79 60
79 62
79 63
79 64
79 65
79 67
79 71
79 73
79 80
79 81
79 95
79 97
90 3
90 5
90 7
90 12
90 15
90 19
90 20
90 26
90 29
90 33
90 34
90 40
90 41
90 52
90 55
90 56
90 58
90 62
90 64
90 67
90 71
90 72
90 74
90 75
90 78
90 81
90 85
90 92
90 93
90 94
90 95
90 96
90 98
90 99
90 100
3 4
3 5
3 7
3 14
3 20
3 21
3 25
3 26
3 28
3 30
3 31
3 33
3 38
3 39
3 52
3 54
3 56
3 58
3 62
3 63
3 66
3 67
3 69
3 71
3 72
3 73
3 76
3 80
3 86
3 87
3 91
3 92
3 94
4 7
4 9
4 16
4 23
4 33
4 34
4 36
4 39
4 41
4 42
4 48
4 50
4 53
4 54
4 56
4 63
4 67
4 70
4 71
4 73
4 77
4 80
4 85
4 91
4 94
4 97
4 99
5 8
5 16
5 17
5 20
5 21
5 22
5 23
5 28
5 29
5 30
5 31
5 33
5 39
5 41
5 49
5 50
5 53
5 55
5 63
5 64
5 72
5 73
5 74
5 75
5 78
5 82
5 83
5 84
5 87
5 88
5 91
5 94
5 96
5 98
6 9
6 10
6 14
6 15
6 16
6 19
6 22
6 26
6 30
6 36
6 42
6 43
6 44
6 47
6 56
6 60
6 62
6 65
6 66
6 67
6 69
6 73
6 75
6 76
6 77
6 78
6 81
6 82
6 83
6 87
6 91
6 96
6 97
6 98
6 99
7 11
7 14
7 17
7 19
7 20
7 21
7 26
7 34
7 37
7 41
7 42
7 44
7 48
7 54
7 55
7 60
7 63
7 72
7 75
7 76
7 80
7 82
7 85
7 86
7 89
7 91
7 92
7 97
7 99
7 100
8 10
8 14
8 17
8 21
8 23
8 25
8 28
8 30
8 33
8 34
8 37
8 42
8 43
8 44
8 49
8 50
8 51
8 54
8 55
8 58
8 59
8 64
8 65
8 72
8 73
8 81
8 85
8 89
8 93
8 96
8 98
9 11
9 15
9 16
9 17
9 19
9 25
9 26
9 28
9 29
9 36
9 41
9 42
9 43
9 47
9 49
9 52
9 56
9 64
9 65
9 80
9 83
9 85
9 87
9 88
9 91
9 93
9 94
9 95
10 15
10 17
10 23
10 25
10 27
10 33
10 36
10 37
10 38
10 39
10 40
10 41
10 43
10 44
10 47
10 50
10 52
10 53
10 58
10 65
10 69
10 73
10 76
10 78
10 81
10 86
10 89
10 91
10 92
10 96
10 97
10 100
11 14
11 21
11 26
11 29
11 30
11 31
11 32
11 38
11 40
11 41
11 42
11 43
11 45
11 51
11 52
11 53
11 55
11 60
11 63
11 65
11 80
11 81
11 83
11 84
11 88
11 92
11 96
11 100
12 17
12 18
12 20
12 25
12 32
12 36
12 38
12 40
12 41
12 43
12 47
12 48
12 49
12 51
12 52
12 53
12 60
12 62
12 63
12 65
12 66
12 67
12 70
12 71
12 72
12 74
12 75
12 77
12 82
12 85
12 93
12 98
12 100
14 21
14 26
14 28
14 30
14 32
14 33
14 37
14 38
14 42
14 44
14 47
14 48
14 51
14 56
14 59
14 61
14 65
14 66
14 71
14 72
14 73
14 74
14 76
14 81
14 82
14 83
14 85
14 88
14 99
15 17
15 19
15 20
15 23
15 25
15 27
15 41
15 44
15 45
15 52
15 56
15 58
15 59
15 61
15 63
15 64
15 66
15 67
15 69
15 72
15 75
15 78
15 81
15 82
15 83
15 95
16 18
16 22
16 33
16 34
16 37
16 38
16 39
16 45
16 47
16 48
16 49
16 52
16 55
16 63
16 64
16 69
16 70
16 73
16 75
16 76
16 77
16 81
16 83
16 88
16 91
16 93
16 94
16 98
16 99
17 18
17 20
17 21
17 25
17 37
17 39
17 41
17 42
17 43
17 44
17 47
17 49
17 53
17 61
17 64
17 66
17 72
17 75
17 78
17 80
17 85
17 86
17 87
17 88
17 91
17 100
18 25
18 28
18 29
18 31
18 32
18 38
18 39
18 42
18 44
18 45
18 49
18 58
18 59
18 60
18 61
18 64
18 67
18 70
18 71
18 74
18 75
18 76
18 77
18 86
18 88
18 91
18 92
18 93
18 97
18 99
18 100
19 20
19 22
19 26
19 27
19 28
19 32
19 36
19 41
19 42
19 44
19 49
19 53
19 54
19 58
19 59
19 62
19 69
19 74
19 76
19 80
19 82
19 89
19 93
19 94
19 95
19 96
19 98
19 99
20 22
20 25
20 27
20 28
20 37
20 40
20 42
20 48
20 49
20 53
20 55
20 60
20 62
20 63
20 64
20 66
20 69
20 71
20 73
20 78
20 80
20 82
20 84
20 86
20 93
21 22
21 25
21 30
21 31
21 33
21 34
21 36
21 41
21 43
21 45
21 47
21 52
21 54
21 55
21 59
21 61
21 65
21 66
21 67
21 75
21 80
21 82
21 84
21 86
21 88
21 89
21 94
21 99
22 23
22 30
22 39
22 40
22 45
22 47
22 48
22 49
22 51
22 55
22 65
22 66
22 69
22 70
22 71
22 74
22 78
22 80
22 82
22 86
22 87
22 89
22 94
22 95
22 96
22 97
22 99
23 29
23 31
23 32
23 38
23 39
23 41
23 48
23 50
23 51
23 54
23 56
23 59
23 60
23 63
23 64
23 65
23 69
23 72
23 73
23 78
23 82
23 85
23 89
23 94
23 95
23 97
23 100
25 27
25 28
25 36
25 38
25 40
25 45
25 52
25 55
25 56
25 58
25 59
25 65
25 67
25 72
25 73
25 80
25 82
25 86
25 88
25 91
25 93
25 97
26 28
26 29
26 30
26 31
26 32
26 37
26 39
26 40
26 47
26 52
26 56
26 59
26 60
26 62
26 64
26 69
26 74
26 75
26 80
26 81
26 85
26 89
26 91
26 96
26 97
27 28
27 31
27 36
27 37
27 38
27 48
27 50
27 53
27 55
27 59
27 61
27 62
27 63
27 67
27 71
27 76
27 78
27 81
27 83
27 84
27 86
27 88
27 89
27 95
27 96
27 99
28 31
28 37
28 40
28 42
28 49
28 50
28 54
28 58
28 59
28 60
28 64
28 65
28 70
28 71
28 74
28 76
28 82
28 83
28 88
28 91
28 94
28 96
29 30
29 31
29 32
29 36
29 37
29 41
29 49
29 51
29 55
29 56
29 61
29 62
29 64
29 67
29 73
29 74
29 84
29 87
29 88
29 89
29 91
29 92
29 93
29 95
29 97
29 100
30 36
30 43
30 44
30 45
30 48
30 51
30 53
30 58
30 61
30 63
30 64
30 67
30 69
30 71
30 73
30 74
30 75
30 80
30 83
30 87
30 89
30 92
30 96
31 38
31 39
31 47
31 49
31 54
31 56
31 59
31 60
31 62
31 63
31 65
31 67
31 75
31 77
31 78
31 84
31 86
31 88
31 89
31 92
31 96
31 98
32 33
32 38
32 39
32 41
32 42
32 45
32 50
32 51
32 52
32 53
32 59
32 60
32 61
32 62
32 66
32 69
32 73
32 74
32 76
32 82
32 84
32 85
32 91
32 93
32 95
33 34
33 36
33 39
33 41
33 45
33 47
33 49
33 50
33 52
33 58
33 62
33 73
33 74
33 76
33 78
33 81
33 83
33 84
33 85
33 86
33 93
33 99
34 37
34 40
34 44
34 45
34 47
34 50
34 54
34 55
34 58
34 60
34 61
34 62
34 64
34 65
34 67
34 75
34 76
34 77
34 80
34 84
34 85
34 94
34 95
34 98
36 41
36 43
36 47
36 48
36 53
36 54
36 58
36 62
36 67
36 73
36 74
36 77
36 80
36 82
36 83
36 84
36 88
36 89
36 93
36 97
36 99
36 100
37 40
37 47
37 48
37 49
37 51
37 54
37 55
37 61
37 62
37 64
37 66
37 69
37 70
37 73
37 76
37 81
37 88
37 89
37 91
37 100
38 39
38 44
38 47
38 48
38 52
38 53
38 59
38 62
38 63
38 65
38 71
38 72
38 73
38 76
38 80
38 81
38 88
38 92
38 94
38 95
38 98
38 100
39 47
39 53
39 58
39 64
39 66
39 69
39 71
39 72
39 74
39 77
39 80
39 81
39 84
39 85
39 86
39 91
39 96
39 97
40 45
40 47
40 50
40 51
40 52
40 53
40 55
40 56
40 58
40 60
40 65
40 69
40 70
40 74
40 77
40 78
40 80
40 88
40 94
40 96
40 97
40 100
41 49
41 52
41 53
41 61
41 63
41 65
41 67
41 70
41 76
41 82
41 83
41 85
41 89
41 91
41 94
41 96
41 100
42 43
42 44
42 50
42 53
42 54
42 55
42 60
42 66
42 71
42 73
42 77
42 78
42 85
42 88
42 91
42 92
42 93
42 95
42 96
42 99
43 50
43 51
43 52
43 53
43 54
43 60
43 64
43 65
43 66
43 69
43 71
43 75
43 81
43 84
43 86
43 87
43 92
43 93
43 94
43 98
43 99
43 100
44 47
44 49
44 50
44 53
44 58
44 59
44 61
44 63
44 72
44 74
44 75
44 76
44 77
44 80
44 87
44 89
44 92
44 95
44 97
44 98
45 52
45 54
45 58
45 60
45 61
45 69
45 70
45 73
45 74
45 75
45 78
45 82
45 83
45 86
45 88
45 92
45 95
47 48
47 49
47 52
47 62
47 65
47 66
47 74
47 75
47 77
47 78
47 80
47 85
47 88
47 89
47 95
48 51
48 59
48 63
48 64
48 70
48 71
48 73
48 75
48 78
48 80
48 82
48 83
48 85
48 89
48 92
48 93
48 99
48 100
49 51
49 62
49 63
49 65
49 70
49 74
49 76
49 86
49 87
49 89
49 93
49 98
50 51
50 52
50 53
50 55
50 59
50 60
50 63
50 74
50 75
50 76
50 78
50 84
50 87
50 91
50 94
50 95
50 97
50 99
51 55
51 56
51 58
51 63
51 65
51 66
51 67
51 69
51 72
51 74
51 76
51 87
51 93
51 99
51 100
52 55
52 59
52 63
52 66
52 69
52 70
52 75
52 81
52 89
52 91
52 92
52 93
52 94
52 95
53 61
53 63
53 69
53 71
53 73
53 74
53 77
53 80
53 84
53 88
53 94
53 96
53 98
54 58
54 60
54 62
54 66
54 69
54 70
54 72
54 73
54 77
54 82
54 88
54 89
54 92
54 94
54 95
54 98
54 100
55 63
55 66
55 67
55 72
55 77
55 81
55 84
55 88
55 89
55 91
55 93
55 95
55 96
55 97
55 99
56 59
56 61
56 65
56 67
56 69
56 72
56 73
56 77
56 78
56 85
56 86
56 87
56 88
56 93
56 94
56 97
56 98
56 99
58 64
58 67
58 69
58 72
58 74
58 76
58 77
58 80
58 83
58 92
58 93
58 96
58 100
59 61
59 64
59 70
59 75
59 80
59 81
59 82
59 84
59 89
59 93
59 94
59 97
59 98
59 99
60 62
60 63
60 64
60 65
60 69
60 75
60 76
60 77
60 78
60 82
60 83
60 84
60 85
60 86
60 97
60 100
61 64
61 66
61 67
61 69
61 70
61 71
61 76
61 77
61 83
61 84
61 85
61 86
61 87
61 88
61 89
61 94
61 95
62 66
62 67
62 73
62 76
62 78
62 80
62 81
62 84
62 87
62 95
62 98
62 100
63 67
63 69
63 72
63 75
63 76
63 77
63 83
63 89
64 69
64 71
64 75
64 80
64 81
64 83
64 84
64 85
64 93
64 94
64 100
65 67
65 71
65 76
65 82
65 85
65 86
65 94
65 96
65 98
66 67
66 69
66 70
66 71
66 72
66 77
66 81
66 82
66 84
66 87
66 91
66 95
67 71
67 75
67 76
67 77
67 91
67 96
67 99
69 73
69 76
69 77
69 86
69 89
69 93
69 94
70 71
70 77
70 81
70 82
70 83
70 87
70 89
70 91
70 92
70 94
70 96
70 97
70 98
70 100
71 74
71 81
71 85
71 86
71 92
71 94
71 95
71 96
71 99
72 74
72 77
72 81
72 82
72 83
72 85
72 87
72 88
72 95
72 97
72 98
72 100
73 78
73 82
73 88
73 91
73 92
73 93
73 98
74 75
74 82
74 88
74 95
74 97
74 99
75 78
75 82
75 91
75 92
75 98
75 99
76 83
76 86
76 87
76 91
76 94
76 99
76 100
77 83
77 84
77 85
77 88
77 89
77 93
77 96
77 97
77 98
78 83
78 85
78 86
78 87
78 88
78 92
78 95
78 96
78 99
78 100
80 84
80 87
80 94
80 97
80 100
81 83
81 84
81 96
81 97
81 98
81 99
81 100
82 83
82 84
82 91
82 97
82 98
83 84
83 85
83 87
83 88
83 96
83 100
84 86
84 87
84 93
84 97
84 98
85 86
85 89
85 93
85 95
85 96
86 87
86 89
86 92
86 93
86 97
86 99
87 91
87 92
87 94
87 95
87 97
87 98
87 100
88 94
88 95
88 99
88 100
89 92
89 93
89 95
89 96
89 97
91 92
91 96
91 97
92 93
92 95
92 96
92 98
92 100
93 98
93 99
94 95
94 98
94 99
94 100
96 98
97 99
97 100
99 100
